SumColouring/JavaBacktracker/RandomInstances/30_0.35_1.col
c File: instances/30_0.35_1.col
c
c Description: Random graph of size 30 vertices and P(0.35) of edges between any two vertices.
p col 30 435
e 1 6
e 1 7
e 1 12
e 1 16
e 1 17
e 1 18
e 1 20
e 1 21
e 1 23
e 1 27
e 2 6
e 2 7
e 2 8
e 2 12
e 2 16
e 2 22
e 2 23
e 2 28
e 2 30
e 3 7
e 3 8
e 3 10
e 3 11
e 3 14
e 3 16
e 3 20
e 3 21
e 3 23
e 3 30
e 4 5
e 4 6
e 4 9
e 4 10
e 4 11
e 4 14
e 4 16
e 4 20
e 4 22
e 4 25
e 4 28
e 5 9
e 5 14
e 5 15
e 5 16
e 5 19
e 5 20
e 5 26
e 5 28
e 5 30
e 6 10
e 6 11
e 6 16
e 6 19
e 6 21
e 6 30
e 7 8
e 7 11
e 7 14
e 7 17
e 7 20
e 7 21
e 7 27
e 7 28
e 7 30
e 8 10
e 8 16
e 8 17
e 8 19
e 8 22
e 8 23
e 8 29
e 9 10
e 9 13
e 9 17
e 9 20
e 9 22
e 9 23
e 9 28
e 9 29
e 10 14
e 10 15
e 10 16
e 10 17
e 10 18
e 10 19
e 10 20
e 10 21
e 10 22
e 10 23
e 10 28
e 10 29
e 11 12
e 11 14
e 11 15
e 11 17
e 11 19
e 11 21
e 11 25
e 11 26
e 12 15
e 12 16
e 12 19
e 12 24
e 12 25
e 12 27
e 12 28
e 12 29
e 13 19
e 13 22
e 13 23
e 13 25
e 13 26
e 13 27
e 14 20
e 15 16
e 15 18
e 15 20
e 15 23
e 15 25
e 15 27
e 15 29
e 15 30
e 16 18
e 16 21
e 16 22
e 16 23
e 16 24
e 16 30
e 17 26
e 17 27
e 17 28
e 17 30
e 18 19
e 18 20
e 18 21
e 18 23
e 18 24
e 18 25
e 18 28
e 19 22
e 19 28
e 20 25
e 21 22
e 21 23
e 21 26
e 21 28
e 22 23
e 23 24
e 24 26
e 25 27
e 25 30
e 26 29
e 26 30
e 27 28
e 28 29
e 29 30